\ LP format - for model browsing. Use MPS format to capture full model detail.
Minimize
  var(0) + var(1) + var(2) + var(3) + var(4) + var(5) + var(6) + var(7)
   + var(8) + var(9) + var(10) + var(11) + var(12) + var(13) + var(14)
   + var(15) + var(16) + var(17) + var(18) + var(19) + var(20) + var(21)
   + var(22) + var(23) + var(24) + var(25) + var(26) + var(27) + var(28)
   + var(29) + var(30) + var(31) + var(32) + var(33) + var(34) + var(35)
Subject To
 constr(0): var(0) + var(4) + var(7) + var(10) >= 1
 constr(1): var(0) + var(4) + var(7) + var(10) >= 1
 constr(2): var(0) + var(4) + var(7) + var(10) >= 1
 constr(3): var(0) + var(4) + var(7) + var(10) >= 1
 constr(4): var(0) + var(4) + var(7) + var(10) >= 1
 constr(5): var(0) + var(5) + var(8) + var(11) >= 1
 constr(6): var(0) + var(4) + var(7) + var(10) >= 1
 constr(7): var(0) + var(4) + var(7) + var(10) >= 1
 constr(8): var(0) + var(4) + var(7) + var(10) >= 1
 constr(9): var(0) + var(4) + var(7) + var(10) >= 1
 constr(10): var(0) + var(5) + var(8) + var(11) >= 1
 constr(11): var(0) + var(4) + var(7) + var(10) >= 1
 constr(12): var(0) + var(4) + var(7) + var(10) >= 1
 constr(13): var(0) + var(4) + var(7) + var(10) >= 1
 constr(14): var(1) + var(5) + var(8) + var(11) >= 1
 constr(15): var(1) + var(5) + var(8) + var(11) >= 1
 constr(16): var(0) + var(5) + var(8) + var(11) >= 1
 constr(17): var(0) + var(4) + var(7) + var(10) >= 1
 constr(18): var(1) + var(5) + var(8) + var(11) >= 1
 constr(19): var(0) + var(5) + var(8) + var(11) >= 1
 constr(20): var(0) + var(4) + var(7) + var(10) >= 1
 constr(21): var(0) + var(5) + var(8) + var(11) >= 1
 constr(22): var(0) + var(4) + var(7) + var(10) >= 1
 constr(23): var(0) + var(4) + var(7) + var(10) >= 1
 constr(24): var(0) + var(4) + var(7) + var(10) >= 1
 constr(25): var(0) + var(4) + var(7) + var(10) >= 1
 constr(26): var(0) + var(4) + var(7) + var(10) >= 1
 constr(27): var(0) + var(4) + var(7) + var(10) >= 1
 constr(28): var(0) + var(4) + var(7) + var(10) >= 1
 constr(29): var(0) + var(4) + var(7) + var(10) >= 1
 constr(30): var(0) + var(4) + var(7) + var(10) >= 1
 constr(31): var(0) + var(4) + var(7) + var(10) >= 1
 constr(32): var(0) + var(5) + var(8) + var(11) >= 1
 constr(33): var(1) + var(5) + var(8) + var(11) >= 1
 constr(34): var(0) + var(4) + var(7) + var(10) >= 1
 constr(35): var(0) + var(4) + var(7) + var(10) >= 1
 constr(36): var(1) + var(4) + var(7) + var(10) >= 1
 constr(37): var(0) + var(4) + var(7) + var(10) >= 1
 constr(38): var(0) + var(4) + var(7) + var(10) >= 1
 constr(39): var(0) + var(4) + var(7) + var(10) >= 1
 constr(40): var(0) + var(4) + var(7) + var(10) >= 1
 constr(41): var(0) + var(3) + var(7) + var(10) >= 1
 constr(42): var(0) + var(4) + var(7) + var(10) >= 1
 constr(43): var(0) + var(4) + var(7) + var(10) >= 1
 constr(44): var(0) + var(5) + var(8) + var(11) >= 1
 constr(45): var(0) + var(4) + var(7) + var(10) >= 1
 constr(46): var(0) + var(5) + var(8) + var(11) >= 1
 constr(47): var(0) + var(4) + var(7) + var(10) >= 1
 constr(48): var(0) + var(5) + var(8) + var(11) >= 1
 constr(49): var(0) + var(4) + var(7) + var(10) >= 1
 constr(50): var(14) + var(16) + var(19) + var(22) >= 1
 constr(51): var(13) + var(16) + var(19) + var(22) >= 1
 constr(52): var(14) + var(16) + var(19) + var(22) >= 1
 constr(53): var(13) + var(15) + var(19) + var(22) >= 1
 constr(54): var(13) + var(16) + var(19) + var(22) >= 1
 constr(55): var(13) + var(16) + var(19) + var(22) >= 1
 constr(56): var(13) + var(16) + var(19) + var(22) >= 1
 constr(57): var(12) + var(15) + var(19) + var(22) >= 1
 constr(58): var(13) + var(16) + var(19) + var(22) >= 1
 constr(59): var(12) + var(15) + var(19) + var(22) >= 1
 constr(60): var(12) + var(15) + var(19) + var(22) >= 1
 constr(61): var(13) + var(16) + var(19) + var(22) >= 1
 constr(62): var(13) + var(15) + var(19) + var(22) >= 1
 constr(63): var(13) + var(16) + var(19) + var(22) >= 1
 constr(64): var(13) + var(16) + var(19) + var(22) >= 1
 constr(65): var(13) + var(16) + var(19) + var(22) >= 1
 constr(66): var(13) + var(16) + var(19) + var(22) >= 1
 constr(67): var(13) + var(15) + var(19) + var(22) >= 1
 constr(68): var(13) + var(15) + var(19) + var(22) >= 1
 constr(69): var(13) + var(15) + var(19) + var(22) >= 1
 constr(70): var(13) + var(16) + var(19) + var(22) >= 1
 constr(71): var(13) + var(16) + var(19) + var(22) >= 1
 constr(72): var(13) + var(15) + var(19) + var(22) >= 1
 constr(73): var(13) + var(16) + var(19) + var(22) >= 1
 constr(74): var(13) + var(16) + var(19) + var(22) >= 1
 constr(75): var(13) + var(16) + var(19) + var(22) >= 1
 constr(76): var(14) + var(16) + var(19) + var(22) >= 1
 constr(77): var(13) + var(16) + var(19) + var(22) >= 1
 constr(78): var(13) + var(16) + var(19) + var(22) >= 1
 constr(79): var(13) + var(15) + var(19) + var(22) >= 1
 constr(80): var(13) + var(15) + var(19) + var(22) >= 1
 constr(81): var(13) + var(15) + var(19) + var(22) >= 1
 constr(82): var(13) + var(15) + var(19) + var(22) >= 1
 constr(83): var(13) + var(15) + var(19) + var(22) >= 1
 constr(84): var(12) + var(16) + var(19) + var(22) >= 1
 constr(85): var(13) + var(16) + var(19) + var(22) >= 1
 constr(86): var(13) + var(16) + var(19) + var(22) >= 1
 constr(87): var(13) + var(15) + var(19) + var(22) >= 1
 constr(88): var(13) + var(16) + var(19) + var(22) >= 1
 constr(89): var(13) + var(15) + var(19) + var(22) >= 1
 constr(90): var(13) + var(15) + var(19) + var(22) >= 1
 constr(91): var(13) + var(16) + var(19) + var(22) >= 1
 constr(92): var(13) + var(15) + var(19) + var(22) >= 1
 constr(93): var(12) + var(15) + var(19) + var(22) >= 1
 constr(94): var(13) + var(15) + var(19) + var(22) >= 1
 constr(95): var(13) + var(16) + var(19) + var(22) >= 1
 constr(96): var(13) + var(16) + var(19) + var(22) >= 1
 constr(97): var(13) + var(16) + var(19) + var(22) >= 1
 constr(98): var(12) + var(15) + var(19) + var(22) >= 1
 constr(99): var(25) + var(28) + var(31) + var(34) >= 1
 constr(100): var(25) + var(28) + var(31) + var(34) >= 1
 constr(101): var(25) + var(27) + var(31) + var(34) >= 1
 constr(102): var(26) + var(28) + var(31) + var(34) >= 1
 constr(103): var(25) + var(28) + var(31) + var(34) >= 1
 constr(104): var(25) + var(28) + var(31) + var(34) >= 1
 constr(105): var(26) + var(28) + var(31) + var(34) >= 1
 constr(106): var(24) + var(27) + var(31) + var(34) >= 1
 constr(107): var(26) + var(28) + var(31) + var(34) >= 1
 constr(108): var(25) + var(27) + var(31) + var(34) >= 1
 constr(109): var(26) + var(28) + var(31) + var(34) >= 1
 constr(110): var(25) + var(28) + var(31) + var(34) >= 1
 constr(111): var(25) + var(27) + var(31) + var(34) >= 1
 constr(112): var(26) + var(28) + var(31) + var(34) >= 1
 constr(113): var(25) + var(27) + var(31) + var(34) >= 1
 constr(114): var(25) + var(28) + var(31) + var(34) >= 1
 constr(115): var(25) + var(28) + var(31) + var(34) >= 1
 constr(116): var(25) + var(28) + var(31) + var(34) >= 1
 constr(117): var(26) + var(29) + var(32) + var(35) >= 1
 constr(118): var(26) + var(27) + var(31) + var(34) >= 1
 constr(119): var(25) + var(27) + var(31) + var(34) >= 1
 constr(120): var(26) + var(28) + var(31) + var(34) >= 1
 constr(121): var(25) + var(28) + var(31) + var(34) >= 1
 constr(122): var(26) + var(28) + var(31) + var(34) >= 1
 constr(123): var(25) + var(27) + var(31) + var(34) >= 1
 constr(124): var(25) + var(28) + var(31) + var(34) >= 1
 constr(125): var(26) + var(28) + var(31) + var(34) >= 1
 constr(126): var(25) + var(28) + var(31) + var(34) >= 1
 constr(127): var(25) + var(28) + var(31) + var(34) >= 1
 constr(128): var(25) + var(28) + var(31) + var(34) >= 1
 constr(129): var(26) + var(28) + var(31) + var(34) >= 1
 constr(130): var(26) + var(28) + var(31) + var(34) >= 1
 constr(131): var(26) + var(29) + var(32) + var(35) >= 1
 constr(132): var(25) + var(28) + var(31) + var(34) >= 1
 constr(133): var(25) + var(28) + var(31) + var(34) >= 1
 constr(134): var(25) + var(27) + var(31) + var(34) >= 1
 constr(135): var(26) + var(28) + var(31) + var(34) >= 1
 constr(136): var(25) + var(28) + var(31) + var(34) >= 1
 constr(137): var(25) + var(28) + var(31) + var(34) >= 1
 constr(138): var(25) + var(28) + var(31) + var(34) >= 1
 constr(139): var(26) + var(28) + var(31) + var(34) >= 1
 constr(140): var(25) + var(28) + var(31) + var(34) >= 1
 constr(141): var(26) + var(28) + var(31) + var(34) >= 1
 constr(142): var(25) + var(27) + var(31) + var(34) >= 1
 constr(143): var(26) + var(28) + var(31) + var(34) >= 1
 constr(144): var(25) + var(28) + var(31) + var(34) >= 1
 constr(145): var(25) + var(28) + var(31) + var(34) >= 1
 constr(146): var(25) + var(27) + var(31) + var(34) >= 1
 constr(147): var(25) + var(28) + var(31) + var(34) >= 1
 constr(148): var(25) + var(28) + var(31) + var(34) >= 1
 constr(149): var(25) + var(28) + var(31) + var(34) >= 1
 constr(150): var(0) + var(12) + var(24) <= 1
 constr(151): var(1) + var(13) + var(25) <= 1
 constr(152): var(2) + var(14) + var(26) <= 1
 constr(153): var(3) + var(15) + var(27) <= 1
 constr(154): var(4) + var(16) + var(28) <= 1
 constr(155): var(5) + var(17) + var(29) <= 1
 constr(156): var(6) + var(18) + var(30) <= 1
 constr(157): var(7) + var(19) + var(31) <= 1
 constr(158): var(8) + var(20) + var(32) <= 1
 constr(159): var(9) + var(21) + var(33) <= 1
 constr(160): var(10) + var(22) + var(34) <= 1
 constr(161): var(11) + var(23) + var(35) <= 1
 constr(162): var(0) + var(1) <= 1
 constr(163): var(0) + var(2) <= 1
 constr(164): var(1) + var(2) <= 1
 constr(165): var(0) + var(1) <= 1
 constr(166): var(0) + var(2) <= 1
 constr(167): var(1) + var(2) <= 1
 constr(168): var(3) + var(4) <= 1
 constr(169): var(3) + var(5) <= 1
 constr(170): var(4) + var(5) <= 1
 constr(171): var(3) + var(4) <= 1
 constr(172): var(3) + var(5) <= 1
 constr(173): var(4) + var(5) <= 1
 constr(174): var(6) + var(7) <= 1
 constr(175): var(6) + var(8) <= 1
 constr(176): var(7) + var(8) <= 1
 constr(177): var(6) + var(7) <= 1
 constr(178): var(6) + var(8) <= 1
 constr(179): var(7) + var(8) <= 1
 constr(180): var(9) + var(10) <= 1
 constr(181): var(9) + var(11) <= 1
 constr(182): var(10) + var(11) <= 1
 constr(183): var(9) + var(10) <= 1
 constr(184): var(9) + var(11) <= 1
 constr(185): var(10) + var(11) <= 1
 constr(186): var(12) + var(13) <= 1
 constr(187): var(12) + var(14) <= 1
 constr(188): var(13) + var(14) <= 1
 constr(189): var(12) + var(13) <= 1
 constr(190): var(12) + var(14) <= 1
 constr(191): var(13) + var(14) <= 1
 constr(192): var(15) + var(16) <= 1
 constr(193): var(15) + var(17) <= 1
 constr(194): var(16) + var(17) <= 1
 constr(195): var(15) + var(16) <= 1
 constr(196): var(15) + var(17) <= 1
 constr(197): var(16) + var(17) <= 1
 constr(198): var(18) + var(19) <= 1
 constr(199): var(18) + var(20) <= 1
 constr(200): var(19) + var(20) <= 1
 constr(201): var(18) + var(19) <= 1
 constr(202): var(18) + var(20) <= 1
 constr(203): var(19) + var(20) <= 1
 constr(204): var(21) + var(22) <= 1
 constr(205): var(21) + var(23) <= 1
 constr(206): var(22) + var(23) <= 1
 constr(207): var(21) + var(22) <= 1
 constr(208): var(21) + var(23) <= 1
 constr(209): var(22) + var(23) <= 1
 constr(210): var(24) + var(25) <= 1
 constr(211): var(24) + var(26) <= 1
 constr(212): var(25) + var(26) <= 1
 constr(213): var(24) + var(25) <= 1
 constr(214): var(24) + var(26) <= 1
 constr(215): var(25) + var(26) <= 1
 constr(216): var(27) + var(28) <= 1
 constr(217): var(27) + var(29) <= 1
 constr(218): var(28) + var(29) <= 1
 constr(219): var(27) + var(28) <= 1
 constr(220): var(27) + var(29) <= 1
 constr(221): var(28) + var(29) <= 1
 constr(222): var(30) + var(31) <= 1
 constr(223): var(30) + var(32) <= 1
 constr(224): var(31) + var(32) <= 1
 constr(225): var(30) + var(31) <= 1
 constr(226): var(30) + var(32) <= 1
 constr(227): var(31) + var(32) <= 1
 constr(228): var(33) + var(34) <= 1
 constr(229): var(33) + var(35) <= 1
 constr(230): var(34) + var(35) <= 1
 constr(231): var(33) + var(34) <= 1
 constr(232): var(33) + var(35) <= 1
 constr(233): var(34) + var(35) <= 1
Bounds
Binaries
 var(0) var(1) var(2) var(3) var(4) var(5) var(6) var(7) var(8) var(9)
 var(10) var(11) var(12) var(13) var(14) var(15) var(16) var(17) var(18)
 var(19) var(20) var(21) var(22) var(23) var(24) var(25) var(26) var(27)
 var(28) var(29) var(30) var(31) var(32) var(33) var(34) var(35)
End
